Copyright (C) 2013-2015, Filipe Brandao
Build (method = -2)
  #dp: 3556
  Step-3' Graph: 84 vertices and 1245 arcs (0.00s)
  Step-4' Graph: 75 vertices and 1227 arcs (0.00s)
  #V4/#V3 = 0.89
  #A4/#A3 = 0.99
Ready! (0.00s)
Optimize a model with 155 rows, 1228 columns and 3539 nonzeros
Found heuristic solution: objective 143
Presolve removed 48 rows and 70 columns
Presolve time: 0.02s
Presolved: 107 rows, 1158 columns, 3254 nonzeros
Variable types: 0 continuous, 1158 integer (257 binary)
Optimize a model with 107 rows, 1158 columns and 3254 nonzeros
Presolved: 107 rows, 1158 columns, 3254 nonzeros

Root barrier log...

Ordering time: 0.00s

Barrier statistics:
 AA' NZ     : 1.625e+03
 Factor NZ  : 3.249e+03
 Factor Ops : 1.329e+05 (less than 1 second per iteration)
 Threads    : 1

                  Objective                Residual
Iter       Primal          Dual         Primal    Dual     Compl     Time
   0   3.61361312e+03 -8.75224649e+03  2.12e+04 1.44e-01  5.30e+01     0s
   1   8.96426824e+02 -3.06605321e+03  2.62e+03 6.77e-15  7.25e+00     0s
   2   2.60407472e+02 -1.21709407e+03  1.99e+02 4.44e-15  9.76e-01     0s
   3   1.69998840e+02 -2.46284731e+02  2.50e+01 3.89e-15  2.05e-01     0s
   4   1.22539559e+02  5.01023944e+00  3.00e+00 4.14e-15  5.23e-02     0s
   5   1.15875779e+02  3.66513747e+01  1.93e+00 6.01e-15  3.49e-02     0s
   6   1.09109654e+02  6.30142947e+01  1.33e+00 5.65e-15  2.03e-02     0s
   7   1.01467056e+02  8.60683324e+01  4.65e-01 3.69e-15  6.71e-03     0s
   8   9.87449466e+01  9.27814003e+01  1.50e-01 5.55e-15  2.58e-03     0s
   9   9.78256858e+01  9.32031826e+01  7.85e-02 5.28e-15  1.99e-03     0s
  10   9.73114248e+01  9.55954879e+01  4.14e-02 4.03e-15  7.41e-04     0s
  11   9.66834955e+01  9.64747944e+01  1.77e-03 5.56e-15  8.94e-05     0s
  12   9.66272969e+01  9.66182531e+01  4.87e-05 5.25e-15  3.87e-06     0s
  13   9.66250012e+01  9.66249976e+01  1.28e-08 4.22e-15  1.55e-09     0s
  14   9.66250000e+01  9.66250000e+01  3.74e-12 3.66e-15  1.62e-15     0s

Barrier solved model in 14 iterations and 0.01 seconds
Optimal objective 9.66250000e+01


Root relaxation: objective 9.662500e+01, 357 iterations, 0.01 seconds

    Nodes    |    Current Node    |     Objective Bounds      |     Work
 Expl Unexpl |  Obj  Depth IntInf | Incumbent    BestBd   Gap | It/Node Time

     0     0   96.62500    0   10  143.00000   96.62500  32.4%     -    0s
H    0     0                      98.0000000   96.62500  1.40%     -    0s
H    0     0                      97.0000000   96.62500  0.39%     -    0s

Explored 0 nodes (409 simplex iterations) in 0.04 seconds
Thread count was 1 (of 4 available processors)

Optimal solution found (tolerance 0.00e+00)
Best objective 9.700000000000e+01, best bound 9.700000000000e+01, gap 0.0%
Preprocessing time: 0.00 seconds
Gurobi run time: 0.04 seconds
Total run time: 0.04 seconds
Objective: 97
Solution:
2 x [i=1]
1 x [i=1, i=80]
1 x [i=2, i=79]
1 x [i=2, i=80]
2 x [i=3, i=78]
2 x [i=4, i=77]
2 x [i=5, i=76]
2 x [i=6, i=76]
1 x [i=7, i=74]
1 x [i=7, i=75]
1 x [i=8, i=73]
3 x [i=9, i=73]
1 x [i=10, i=72]
2 x [i=11, i=71]
4 x [i=12, i=70]
3 x [i=13, i=69]
1 x [i=13, i=70]
1 x [i=13, i=72]
2 x [i=14, i=68]
1 x [i=15, i=67]
2 x [i=16, i=66]
2 x [i=17, i=64]
2 x [i=17, i=65]
2 x [i=18, i=63]
1 x [i=19, i=63]
1 x [i=20, i=61]
2 x [i=21, i=61]
1 x [i=22]
2 x [i=23, i=59]
1 x [i=24, i=58]
1 x [i=25, i=57]
1 x [i=26, i=56]
1 x [i=27, i=55]
3 x [i=28, i=53]
1 x [i=29, i=54]
2 x [i=30, i=51]
1 x [i=30, i=52]
2 x [i=31, i=48]
1 x [i=31, i=49]
2 x [i=32, i=48]
3 x [i=32, i=55]
1 x [i=33, i=57]
1 x [i=34, i=50]
2 x [i=35, i=47]
1 x [i=35, i=51]
2 x [i=36, i=46]
3 x [i=37, i=45]
1 x [i=38, i=44]
1 x [i=39, i=43]
4 x [i=40, i=42]
1 x [i=40, i=43]
1 x [i=41, i=41]
1 x [i=42, i=46]
1 x [i=44, i=56]
1 x [i=55, i=56, i=77]
1 x [i=56, i=59, i=72]
1 x [i=56, i=65, i=65]
3 x [i=57, i=58, i=72]
2 x [i=60, i=60, i=65]
1 x [i=61, i=62, i=63]
